25 83 193
1 2 5
1 3 2
1 6 3
1 11 3
1 17 4
1 23 3
1 25 3
2 4 4
2 5 1
2 6 4
2 23 1
2 25 4
3 6 4
3 8 4
3 9 1
3 12 1
3 13 1
3 15 5
4 18 3
4 21 5
4 24 4
4 25 2
5 6 2
5 8 4
5 10 3
5 13 2
5 14 4
5 16 5
5 22 2
5 24 3
5 25 5
6 9 3
6 14 3
6 19 2
6 21 1
7 11 4
7 13 4
7 18 2
8 12 3
8 13 3
8 19 1
8 20 4
9 12 2
9 13 4
9 15 5
9 23 4
9 24 1
10 15 1
10 19 3
10 20 4
10 22 5
11 12 1
11 16 5
11 19 5
11 21 2
11 24 1
12 16 5
12 17 5
12 18 5
12 20 3
12 21 2
12 22 3
13 14 4
13 17 1
13 19 5
13 22 1
13 25 3
14 16 1
14 23 1
15 19 5
15 20 1
15 23 4
15 25 1
16 21 1
16 22 2
17 24 4
18 19 5
18 23 5
18 24 1
20 23 5
20 24 4
20 25 1
23 24 3
